[[88, 89, 90, 99, 98, 97, 96, 87, 86, 95, 94, 93, 92, 91, 82, 83, 73, 84, 85, 76, 75], [77, 68, 67, 66, 74, 65, 64, 56, 57, 58, 59, 60, 49, 55, 46, 47, 48, 39, 40, 38], [29, 37, 28, 30, 19, 20, 21, 22, 23, 13, 12, 11, 10, 2, 3, 4, 14, 5, 6, 7], [8, 9, 15, 16, 17, 18, 24, 25, 26, 27, 35, 36, 44, 34, 43, 33, 31, 32], [41, 42, 50, 51, 52, 53, 45, 54, 63, 62, 61, 72, 81, 71, 80, 70, 69, 78, 79]]